c clasp version 2.1.1
c Reading from p55.cnf
c Solving...
s SATISFIABLE

c Models        : 1+    
c Time          : 7.666s (Solving: 6.18s 1st Model: 6.18s Unsat: 0.00s)
c CPU Time      : 7.650s
c Choices       : 26079
c Conflicts     : 16002
c Restarts      : 2      (Average: 8001.00 Last: 190)

c Variables     : 229459 (Eliminated: 71383 Frozen:    0)
c Constraints   : 266259 (Binary: 64.4% Ternary: 34.5% Other:  1.1%)
c Lemmas        : 16002  (Binary:  0.0% Ternary:  0.0% Other:100.0%)
c   Conflict    : 16002  (Average Length: 251.9) 
c   Loop        : 0      (Average Length: 0.0) 
c   Other       : 0      (Average Length: 0.0)
c   Deleted     : 4988  
